
numDies = 20; % numero de dies
m = 3; % num linacs
s = 8; % num sessions per pacient
p = 45; % num pacients
tolerancia = 3; % diferencia maxima diaSesio i separacio
solicitud = 14; % dies maxims fins primera visita

disponible = [|  3,  3,  3,  6,  3, 18, 18, 13, 13, 14, 36, 30, 34, 26, 32, 49, 49, 49, 49, 49
              |  6,  5,  7,  9,  8, 26, 18, 19, 20, 29, 38, 36, 35, 29, 33, 49, 49, 49, 49, 49
              |  6,  6, 14,  9, 11, 27, 24, 23, 27, 30, 39, 36, 40, 40, 43, 49, 49, 49, 49, 49 |]; % capacitat de cada linac

duracio = [| 2, 2, 2, 2, 2, 2, 2, 2
            | 2, 2, 2, 2, 2, 2, 2, 2
            | 2, 2, 2, 2, 2, 2, 2, 2
            | 2, 2, 2, 2, 2, 2, 2, 2
            | 2, 2, 2, 2, 2, 2, 2, 2
            | 2, 2, 2, 2, 2, 2, 2, 2
            | 2, 2, 2, 2, 2, 2, 2, 2
            | 2, 2, 2, 2, 2, 3, 3, 3
            | 2, 2, 2, 2, 2, 3, 3, 3
            | 2, 2, 2, 2, 2, 3, 3, 3
            | 2, 2, 2, 2, 2, 3, 3, 3
            | 2, 2, 2, 2, 2, 3, 3, 3
            | 2, 2, 2, 2, 2, 3, 3, 3
            | 2, 2, 2, 2, 2, 3, 3, 3
            | 2, 2, 2, 2, 2, 3, 3, 3
            | 2, 2, 2, 2, 2, 3, 3, 3
            | 2, 2, 2, 2, 2, 3, 3, 3
            | 2, 2, 2, 2, 2, 3, 3, 3
            | 2, 2, 2, 2, 2, 3, 3, 3
            | 2, 2, 2, 2, 2, 3, 3, 3
            | 2, 2, 2, 2, 2, 3, 3, 3
            | 2, 2, 2, 2, 2, 3, 3, 3
            | 2, 2, 2, 2, 2, 3, 3, 3
            | 3, 3, 3, 3, 3, 2, 2, 2
            | 3, 3, 3, 3, 3, 2, 2, 2
            | 3, 3, 3, 3, 3, 2, 2, 2
            | 3, 3, 3, 3, 3, 2, 2, 2
            | 3, 3, 3, 3, 3, 2, 2, 2
            | 3, 3, 3, 3, 3, 2, 2, 2
            | 3, 3, 3, 3, 3, 2, 2, 2
            | 3, 3, 3, 3, 3, 2, 2, 2
            | 3, 3, 3, 3, 3, 3, 3, 3
            | 3, 3, 3, 3, 3, 3, 3, 3
            | 3, 3, 3, 3, 3, 3, 3, 3
            | 3, 3, 3, 3, 3, 3, 3, 3
            | 3, 3, 3, 3, 3, 3, 3, 3
            | 3, 3, 3, 3, 3, 3, 3, 3
            | 3, 3, 3, 3, 3, 3, 3, 3
            | 3, 3, 3, 3, 3, 3, 3, 3
            | 3, 3, 3, 3, 3, 3, 3, 3
            | 3, 3, 3, 3, 3, 3, 3, 3
            | 3, 3, 3, 3, 3, 3, 3, 3
            | 3, 3, 3, 3, 3, 3, 3, 3
            | 3, 3, 3, 3, 3, 3, 3, 3
            | 3, 3, 3, 3, 3, 3, 3, 3 |]; % duracion de la sesion (2 o 3 instants de temps)(30 o 45 mins)

separacio = [| 1, 2, 2, 1, 3, 1, 3
              | 3, 1, 3, 1, 1, 2, 2
              | 3, 1, 3, 1, 1, 2, 2
              | 3, 1, 3, 1, 1, 2, 2
              | 3, 1, 3, 1, 1, 2, 2
              | 3, 1, 3, 1, 1, 2, 2
              | 3, 1, 3, 1, 1, 2, 2
              | 1, 2, 2, 1, 3, 1, 3
              | 1, 2, 2, 1, 3, 1, 3
              | 3, 1, 3, 1, 1, 2, 2
              | 3, 1, 3, 1, 1, 2, 2
              | 3, 1, 3, 1, 1, 2, 2
              | 3, 1, 3, 1, 1, 2, 2
              | 3, 1, 3, 1, 1, 2, 2
              | 3, 1, 3, 1, 1, 2, 2
              | 3, 1, 3, 1, 1, 2, 2
              | 3, 1, 3, 1, 1, 2, 2
              | 3, 1, 3, 1, 1, 2, 2
              | 3, 1, 3, 1, 1, 2, 2
              | 3, 1, 3, 1, 1, 2, 2
              | 3, 1, 3, 1, 1, 2, 2
              | 1, 2, 2, 1, 3, 1, 3
              | 1, 2, 2, 1, 3, 1, 3
              | 1, 2, 2, 1, 3, 1, 3
              | 1, 2, 2, 1, 3, 1, 3
              | 3, 1, 3, 1, 1, 2, 2
              | 3, 1, 3, 1, 1, 2, 2
              | 3, 1, 3, 1, 1, 2, 2
              | 3, 1, 3, 1, 1, 2, 2
              | 3, 1, 3, 1, 1, 2, 2
              | 3, 1, 3, 1, 1, 2, 2
              | 3, 1, 3, 1, 1, 2, 2
              | 3, 1, 3, 1, 1, 2, 2
              | 3, 1, 3, 1, 1, 2, 2
              | 3, 1, 3, 1, 1, 2, 2
              | 3, 1, 3, 1, 1, 2, 2
              | 3, 1, 3, 1, 1, 2, 2
              | 1, 2, 2, 1, 3, 1, 3
              | 3, 1, 3, 1, 1, 2, 2
              | 3, 1, 3, 1, 1, 2, 2
              | 3, 1, 3, 1, 1, 2, 2
              | 3, 1, 3, 1, 1, 2, 2
              | 3, 1, 3, 1, 1, 2, 2
              | 3, 1, 3, 1, 1, 2, 2
              | 3, 1, 3, 1, 1, 2, 2 |]; % separacio ideal entre sesions 

grup = [1, 2, 2, 2, 3, 3, 3, 4, 4, 5, 5, 5, 5, 5, 5, 5, 5, 5, 5, 6, 6, 7, 7, 7, 7, 8, 9, 9, 9, 9, 9, 9, 9, 9, 9, 9, 9, 10, 11, 11, 11, 12, 12, 12, 12]; % pacients amb mateix grup son identics